 11	73
 20
  0	  4	 39	 43	112	 77	116	 36	 19	 54	127	 92	 57	130	109	 70	 33	143	106	147	
 10
  0	 61	134	 63	 59	136	132	 47	120	147	
 18
  0	 37	 20	 24	 93	  9	110	 23	 97	 96	  1	 74	 65	 82	 41	114	138	147	
 12
  0	 45	 71	 27	118	 60	144	 10	133	100	 83	147	
 22
  0	 17	 48	 44	 35	 90	108	117	 55	  6	121	 56	 30	129	 68	103	141	128	 51	 79	124	147	
 14
  0	 22	 42	 13	115	 69	 86	 95	 72	142	145	 16	 89	147	
 20
  0	  2	 25	 73	 40	 75	 31	113	 15	 88	 98	 32	105	 11	104	146	 67	140	 84	147	
 10
  0	 28	 50	101	123	 38	 52	111	125	147	
 14
  0	 26	  8	 12	 85	 49	 99	 81	 53	126	122	 34	107	147	
 16
  0	 18	 14	 46	 91	  3	 87	 64	119	 62	  7	 76	137	135	 80	147	
 12
  0	 21	 94	 58	 29	102	131	 66	  5	 78	139	147	
